InboundTrucks  = 8;
OutboundTrucks = 5;
InboundDoors   = 2;
OutboundDoors  = 1;
ReleaseTime    = [2,6,18,12,20,5,19,16];
UnloadTime     = [3,6,5,3,7,1,10,7];
LoadTime       = [3,1,8,7,6];
TransferTime   = [| 4,5,2,2,3 | 2,4,1,3,2 | 4,5,4,2,3 | 1,4,1,2,3 | 4,3,3,5,5 | 1,5,2,1,3 | 4,5,1,5,2 | 2,2,1,2,4 |];
